clingo version 5.1.0
Reading from ASP/config.gringo ...
Solving...
Answer: 1
repair(rEdge("a","d")) repair(rEdge("c","d"))
Optimization: 2
Answer: 2
repair(rEdge("a","d"))
Optimization: 1
Answer: 1
repair(rEdge("a","d"))
Optimization: 1
Answer: 2
repair(rEdge("a","d"))
Optimization: 1
Answer: 3
repair(rEdge("a","d"))
Optimization: 1
Answer: 4
repair(rEdge("a","d"))
Optimization: 1
OPTIMUM FOUND

Models       : 6
  Optimum    : yes
  Optimal    : 4
Optimization : 1
Calls        : 1
